2
8
20
1 1.3 1.55 1.75 2.1
18 20 26 17 48 32 7 26 38 25 24 49 14 18 7 23 10 19 45 18 25 10 46 23 19 11 18 40 46 41 18 8 22 39 46 21 32 27 26 45 37 44 12 40 13 28 45 49 46 23 11 22 12 10 33 14 38 44 20 49 32 25 12 9 43 23 25 5 34 44 25 13 31 43 42 14 46 7 37 7 35 47 35 39 43 11 28 29 23 46 25 49 7 35 44 46 44 28 20 20 49 16 11 42 29 26 47 38 5 36 14 23 27 17 10 35 6 36 29 21 40 31 24 33 48 23 39 17 24 7 45 10 36 11 21 8 21 31 38 30 18 12 6 19 44 36 30 26 22 46 48 43 27 39 25 36 24 30 46 6 